50

99 12 222
96 11 441
96 1 214
96 29 456
95 3 437
95 10 332
94 5 358
90 25 358
90 15 549
88 13 563
87 7 291
84 14 293
82 25 210
78 17 508
77 23 286
77 2 319
77 1 403
75 8 489
75 18 558
70 10 345
70 14 420
69 1 558
68 7 536
56 11 512
54 7 580
53 16 286
53 14 456
50 5 511
50 11 443
49 5 345
48 5 357
47 4 218
45 13 566
38 11 322
36 8 552
35 4 404
34 9 219
28 5 472
25 1 470
21 1 293
19 5 514
18 3 266
16 2 536
13 4 310
13 4 297
7 1 365
7 1 539
6 2 236
3 1 238
3 1 591
